c Result of efficient AIG-to-CNF conversion using package CNF
p cnf 288 916
-2 -3 86 0
-2 86 178 185 0
2 -86 0
2 3 -185 0
2 3 -178 0
-3 4 70 0
3 -4 0
3 -70 0
4 251 -34 59 0
4 -5 -34 59 0
-4 -59 0
-4 34 0
-4 -251 5 0
5 6 -27 0
5 -252 6 0
5 6 -20 0
-5 -6 0
-5 252 20 27 0
6 -252 7 14 0
-6 252 0
-6 -14 0
-6 -7 0
7 253 -8 0
7 -253 -11 0
-7 -253 11 0
-7 253 8 0
8 254 -9 0
8 -254 -10 0
-8 -254 10 0
-8 254 9 0
9 255 -280 0
9 -255 -281 0
-9 -255 281 0
-9 255 280 0
10 255 -282 0
10 -255 -283 0
-10 -255 283 0
-10 255 282 0
11 254 -12 0
11 -254 -13 0
-11 -254 13 0
-11 254 12 0
12 255 -284 0
12 -255 -285 0
-12 -255 285 0
-12 255 284 0
13 255 -286 0
13 -255 -287 0
-13 -255 287 0
-13 255 286 0
14 253 -15 0
14 -253 -18 0
-14 -253 18 0
-14 253 15 0
15 254 -16 0
15 -254 -17 0
-15 -254 17 0
-15 254 16 0
16 255 -281 0
16 -255 -282 0
-16 -255 282 0
-16 255 281 0
17 255 -283 0
17 -255 -284 0
-17 -255 284 0
-17 255 283 0
18 254 -19 0
18 -254 255 -287 0
-18 -254 -255 0
-18 254 19 0
-18 -254 287 0
19 255 -285 0
19 -255 -286 0
-19 -255 286 0
-19 255 285 0
20 253 -21 0
20 -253 -24 0
-20 -253 24 0
-20 253 21 0
21 254 -22 0
21 -254 -23 0
-21 -254 23 0
-21 254 22 0
22 255 -272 0
22 -255 -273 0
-22 -255 273 0
-22 255 272 0
23 255 -274 0
23 -255 -275 0
-23 -255 275 0
-23 255 274 0
24 254 -25 0
24 -254 -26 0
-24 -254 26 0
-24 254 25 0
25 255 -276 0
25 -255 -277 0
-25 -255 277 0
-25 255 276 0
26 255 -278 0
26 -255 -279 0
-26 -255 279 0
-26 255 278 0
27 253 -28 0
27 -253 -31 0
-27 -253 31 0
-27 253 28 0
28 254 -29 0
28 -254 -30 0
-28 -254 30 0
-28 254 29 0
29 255 -273 0
29 -255 -274 0
-29 -255 274 0
-29 255 273 0
30 255 -275 0
30 -255 -276 0
-30 -255 276 0
-30 255 275 0
31 254 -32 0
31 -254 -33 0
-31 -254 33 0
-31 254 32 0
32 255 -277 0
32 -255 -278 0
-32 -255 278 0
-32 255 277 0
33 255 -279 0
33 -255 -280 0
-33 -255 280 0
-33 255 279 0
-34 251 -252 44 0
-34 251 252 35 0
34 -251 0
34 -252 -44 0
34 252 -35 0
-35 253 36 0
-35 -253 40 0
35 -253 -40 0
35 253 -36 0
-36 254 39 0
-36 -254 37 38 0
36 -254 -37 0
36 254 -39 0
36 -254 -38 0
37 255 -258 0
37 -255 -259 0
-37 -255 259 0
-37 255 258 0
38 255 -259 0
38 -255 -260 0
-38 -255 260 0
-38 255 259 0
-39 -255 257 258 0
-39 255 256 257 0
39 -257 0
39 255 -256 0
39 -255 -258 0
-40 -254 41 0
-40 254 42 43 0
40 254 -43 0
40 -254 -41 0
40 254 -42 0
-41 -255 263 264 0
-41 255 262 263 0
41 -263 0
41 255 -262 0
41 -255 -264 0
42 255 -261 0
42 -255 -262 0
-42 -255 262 0
-42 255 261 0
43 255 -260 0
43 -255 -261 0
-43 -255 261 0
-43 255 260 0
-44 45 52 0
44 -45 0
44 -52 0
45 253 -46 0
45 -253 -49 0
-45 -253 49 0
-45 253 46 0
46 254 -47 0
46 -254 -48 0
-46 -254 48 0
-46 254 47 0
47 255 -264 0
47 -255 -265 0
-47 -255 265 0
-47 255 264 0
48 255 -266 0
48 -255 -267 0
-48 -255 267 0
-48 255 266 0
49 254 -50 0
49 -254 -51 0
-49 -254 51 0
-49 254 50 0
50 255 -268 0
50 -255 -269 0
-50 -255 269 0
-50 255 268 0
51 255 -270 0
51 -255 -271 0
-51 -255 271 0
-51 255 270 0
52 253 -53 0
52 -253 -56 0
-52 -253 56 0
-52 253 53 0
53 254 -54 0
53 -254 -55 0
-53 -254 55 0
-53 254 54 0
54 255 -265 0
54 -255 -266 0
-54 -255 266 0
-54 255 265 0
55 255 -267 0
55 -255 -268 0
-55 -255 268 0
-55 255 267 0
56 254 -57 0
56 -254 -58 0
-56 -254 58 0
-56 254 57 0
57 255 -269 0
57 -255 -270 0
-57 -255 270 0
-57 255 269 0
58 255 -271 0
58 -255 -272 0
-58 -255 272 0
-58 255 271 0
-59 60 66 68 69 0
59 -69 0
59 -60 0
59 -68 0
59 -66 0
-60 248 249 61 63 0
60 -248 0
60 -63 0
60 -61 0
60 -249 0
-61 240 246 247 62 0
61 -62 0
61 -247 0
61 -240 0
61 -246 0
-62 244 245 250 0
62 -244 0
62 -250 0
62 -245 0
-63 241 242 243 64 0
63 -64 0
63 -243 0
63 -241 0
63 -242 0
-64 236 237 65 0
64 -65 0
64 -237 0
64 -236 0
-65 232 233 238 239 0
65 -239 0
65 -238 0
65 -232 0
65 -233 0
-66 230 234 235 67 0
66 -67 0
66 -235 0
66 -230 0
66 -234 0
-67 228 229 0
67 -228 0
67 -229 0
-68 224 231 0
68 -224 0
68 -231 0
-69 225 226 227 0
69 -225 0
69 -227 0
69 -226 0
70 251 59 -78 0
70 -251 59 -71 0
-70 -59 0
-70 251 78 0
-70 -251 71 0
71 -252 -72 0
71 252 -75 0
-71 252 75 0
-71 -252 72 0
72 253 -73 0
72 -253 -74 0
-72 -253 74 0
-72 253 73 0
73 254 -10 0
73 -254 -12 0
-73 -254 12 0
-73 254 10 0
74 254 -255 -287 0
74 254 255 -286 0
-74 -254 0
-74 -255 287 0
-74 255 286 0
75 -253 -76 0
75 253 -77 0
-75 253 77 0
-75 -253 76 0
76 -254 -9 0
76 254 -26 0
-76 254 26 0
-76 -254 9 0
77 254 -23 0
77 -254 -25 0
-77 -254 25 0
-77 254 23 0
-78 252 79 0
-78 -252 83 0
78 -252 -83 0
78 252 -79 0
-79 253 80 0
-79 -253 81 0
79 -253 -81 0
79 253 -80 0
-80 -254 43 0
-80 254 37 0
80 254 -37 0
80 -254 -43 0
81 254 -82 0
81 -254 -47 0
-81 -254 47 0
-81 254 82 0
82 255 -262 0
82 -255 -263 0
-82 -255 263 0
-82 255 262 0
83 -253 -84 0
83 253 -85 0
-83 253 85 0
-83 -253 84 0
84 -254 -22 0
84 254 -51 0
-84 254 51 0
-84 -254 22 0
85 254 -48 0
85 -254 -50 0
-85 -254 50 0
-85 254 48 0
-86 -4 170 175 0
-86 87 170 175 0
86 -175 0
86 -170 0
86 4 -87 0
87 227 -88 94 137 0
-87 -227 0
-87 -137 0
-87 -94 0
-87 88 0
88 -89 93 0
-88 89 0
-88 -93 0
89 252 -90 0
-89 -252 0
-89 90 0
90 253 -91 0
90 -253 -92 0
-90 -253 92 0
-90 253 91 0
91 254 -17 0
91 -254 -19 0
-91 -254 19 0
-91 254 17 0
92 254 255 -287 0
-92 287 0
-92 -255 0
-92 -254 0
-93 251 59 0
93 -251 0
93 -59 0
-94 88 95 0
-94 95 -131 0
94 -95 0
94 -88 131 0
-95 96 106 110 114 0
95 -114 0
95 -110 0
95 -96 0
95 -106 0
-96 -93 0
-96 97 98 99 0
96 93 -97 0
96 93 -99 0
96 93 -98 0
97 252 -14 0
97 252 -72 0
-97 -252 0
-97 14 72 0
98 252 -7 0
-98 -252 0
-98 7 0
-99 -252 100 105 0
-99 252 100 103 0
99 -100 0
99 -252 -105 0
99 252 -103 0
100 252 -101 0
100 -252 -102 0
-100 -252 102 0
-100 252 101 0
101 -253 -73 0
101 253 -76 0
-101 253 76 0
-101 -253 73 0
102 253 -74 0
-102 -253 0
-102 74 0
103 -253 -91 0
103 253 -104 0
-103 253 104 0
-103 -253 91 0
104 -254 -16 0
104 254 -33 0
-104 254 33 0
-104 -254 16 0
105 253 254 255 -287 0
-105 287 0
-105 -255 0
-105 -253 0
-105 -254 0
106 93 -71 0
106 93 -107 0
-106 -93 0
-106 71 107 0
107 -252 -90 0
107 252 -108 0
-107 252 108 0
-107 -252 90 0
108 -253 -104 0
108 253 -109 0
-108 253 109 0
-108 -253 104 0
109 254 -30 0
109 -254 -32 0
-109 -254 32 0
-109 254 30 0
110 93 -111 0
-110 -93 0
-110 111 0
111 252 -112 0
111 -252 -113 0
-111 -252 113 0
-111 252 112 0
112 -253 -8 0
112 253 -24 0
-112 253 24 0
-112 -253 8 0
113 253 -11 0
-113 -253 0
-113 11 0
-114 115 119 123 0
114 -115 0
114 -123 0
114 -119 0
115 93 -116 0
-115 -93 0
-115 116 0
116 252 -117 0
116 -252 -118 0
-116 -252 118 0
-116 252 117 0
117 -253 -15 0
117 253 -31 0
-117 253 31 0
-117 -253 15 0
118 253 -18 0
-118 -253 0
-118 18 0
119 -251 59 -122 0
119 251 59 -120 0
-119 -59 0
-119 -251 122 0
-119 251 120 0
120 -252 -112 0
120 252 -121 0
-120 252 121 0
-120 -252 112 0
121 -253 -21 0
121 253 -49 0
-121 253 49 0
-121 -253 21 0
122 252 -113 0
-122 -252 0
-122 113 0
123 251 59 -124 0
123 -251 59 -128 0
-123 -59 0
-123 -251 128 0
-123 251 124 0
124 -252 -101 0
124 252 -125 0
124 -252 -117 0
-124 252 125 0
-124 -252 101 117 0
-125 126 127 0
125 -126 0
125 -127 0
126 -253 -28 0
126 253 -56 0
-126 253 56 0
-126 -253 28 0
127 -253 -77 0
127 253 -84 0
-127 253 84 0
-127 -253 77 0
-128 129 130 0
128 -129 0
128 -130 0
129 252 -118 0
-129 -252 0
-129 118 0
130 252 -102 0
-130 -252 0
-130 102 0
131 -132 -133 0
131 -243 132 0
-131 -132 133 0
-131 243 132 0
132 93 -122 0
-132 -93 0
-132 122 0
133 -134 -135 0
133 -251 134 0
-133 -134 135 0
-133 251 134 0
134 93 -129 0
-134 -93 0
-134 129 0
135 -255 136 0
-135 255 0
-135 -136 0
136 93 -130 0
-136 -93 0
-136 130 0
-137 70 138 0
137 -70 0
137 -138 0
-138 139 153 162 166 0
138 -153 0
138 -166 0
138 -139 0
138 -162 0
-139 140 145 0
139 -140 0
139 -145 0
-140 -93 141 0
-140 5 -144 0
-140 -93 -144 0
-140 5 141 0
140 -5 93 0
140 -141 144 0
-141 251 -252 103 0
-141 251 252 142 0
141 -251 0
141 -252 -103 0
141 252 -142 0
142 -253 -109 0
142 253 -143 0
-142 253 143 0
-142 -253 109 0
143 -254 -29 0
143 254 -58 0
-143 254 58 0
-143 -254 29 0
-144 251 59 0
-144 252 59 -105 0
144 -59 0
144 -251 105 0
144 -251 -252 0
-145 146 149 0
145 -146 0
145 -149 0
146 251 59 -147 0
146 -251 59 -97 0
-146 -59 0
-146 -251 97 0
-146 251 147 0
147 -252 -27 0
147 252 -148 0
147 -252 -75 0
-147 252 148 0
-147 -252 27 75 0
-148 52 83 0
148 -52 0
148 -83 0
149 251 59 -150 0
149 -251 59 -89 0
-149 -59 0
-149 -251 89 0
-149 251 150 0
150 -252 -108 0
150 252 -151 0
-150 252 151 0
-150 -252 108 0
151 -253 -143 0
151 253 -152 0
-151 253 152 0
-151 -253 143 0
152 254 -55 0
152 -254 -57 0
-152 -254 57 0
-152 254 55 0
-153 -59 0
-153 154 156 0
-153 -155 156 0
153 59 -156 0
153 59 -154 155 0
-154 251 -252 20 0
-154 251 252 45 0
154 -251 0
154 -252 -20 0
154 252 -45 0
155 -251 98 0
-155 251 0
-155 -98 0
-156 -251 99 0
-156 251 157 0
156 251 -157 0
156 -251 -99 0
-157 252 158 0
-157 -252 127 142 0
157 -252 -127 0
157 252 -158 0
157 -252 -142 0
-158 -253 159 0
-158 253 81 160 0
158 253 -81 0
158 -253 -159 0
158 253 -160 0
-159 85 152 0
159 -85 0
159 -152 0
160 254 -161 0
160 -254 -54 0
-160 -254 54 0
-160 254 161 0
161 255 -263 0
161 -255 -264 0
-161 -255 264 0
-161 255 263 0
162 251 59 -163 0
162 -251 59 -107 0
-162 -59 0
-162 251 163 0
-162 -251 107 0
-163 -252 151 0
-163 252 164 0
163 -252 -151 0
163 252 -164 0
-164 -253 160 0
-164 253 165 0
164 -253 -160 0
164 253 -165 0
-165 -254 42 0
-165 254 38 0
165 254 -38 0
165 -254 -42 0
166 251 59 -168 0
166 -251 59 -167 0
-166 -59 0
-166 251 168 0
-166 -251 167 0
-167 111 116 0
167 -111 0
167 -116 0
-168 252 169 0
-168 -252 121 126 0
168 -252 -121 0
168 252 -169 0
168 -252 -126 0
-169 253 40 0
-169 -253 46 53 0
169 -253 -46 0
169 253 -40 0
169 -253 -53 0
170 225 -88 171 -172 0
-170 -225 0
-170 172 0
-170 -171 0
-170 88 0
-171 95 138 3 0
171 -95 0
171 -138 0
171 -3 0
172 -132 -173 0
172 -241 132 0
-172 -132 173 0
-172 241 132 0
173 -134 -174 0
173 -249 134 0
-173 -134 174 0
-173 249 134 0
174 -255 -136 0
174 -253 136 0
-174 253 136 0
-174 255 -136 0
175 226 -88 171 -176 0
-175 -226 0
-175 176 0
-175 -171 0
-175 88 0
176 -132 -177 0
176 -242 132 0
-176 -132 177 0
-176 242 132 0
177 -254 -134 0
177 -250 134 0
-177 250 134 0
-177 254 -134 0
178 253 88 179 -183 0
-178 -253 0
-178 183 0
-178 -179 0
-178 -88 0
-179 162 180 0
179 -162 0
179 -180 0
-180 88 140 145 181 0
180 -88 0
180 -181 0
180 -145 0
180 -140 0
-181 95 182 0
181 -95 0
181 -182 0
-182 153 166 0
182 -153 0
182 -166 0
183 132 -184 0
-183 -132 0
-183 184 0
184 134 -174 0
-184 -134 0
-184 174 0
185 162 -206 0
185 162 -186 0
185 162 -218 0
-185 -162 0
-185 186 206 218 0
-186 187 195 197 202 0
186 -202 0
186 -187 0
186 -197 0
186 -195 0
-187 -180 189 0
-187 -249 189 0
-187 188 189 0
187 -189 0
187 249 180 -188 0
188 132 -173 0
-188 -132 0
-188 173 0
189 233 -88 -188 190 0
-189 -233 0
-189 -190 0
-189 188 0
-189 88 0
-190 182 191 0
190 -182 0
190 -191 0
-191 140 146 192 194 0
191 -194 0
191 -140 0
191 -192 0
191 -146 0
-192 96 106 123 193 0
192 -193 0
192 -123 0
192 -96 0
192 -106 0
-193 110 115 0
193 -110 0
193 -115 0
-194 119 149 0
194 -119 0
194 -149 0
195 250 180 -196 0
-195 196 0
-195 -180 0
-195 -250 0
196 132 -177 0
-196 -132 0
-196 177 0
-197 -180 200 0
-197 -247 200 0
-197 198 200 0
197 -200 0
197 247 180 -198 0
198 -132 -199 0
198 -247 132 0
-198 -132 199 0
-198 247 132 0
199 134 -135 0
-199 -134 0
-199 135 0
200 235 -88 190 -201 0
-200 -235 0
-200 201 0
-200 -190 0
-200 88 0
201 132 -133 0
-201 -132 0
-201 133 0
-202 203 205 0
-202 -190 203 0
-202 -239 203 0
202 -203 0
202 239 190 -205 0
203 238 -88 190 -204 0
-203 -238 0
-203 204 0
-203 -190 0
-203 88 0
204 -254 132 134 0
-204 254 0
-204 -134 0
-204 -132 0
205 -88 132 -199 0
-205 88 0
-205 -132 0
-205 199 0
-206 -166 214 216 0
-206 207 214 216 0
206 -216 0
206 -214 0
206 166 -207 0
-207 208 -211 0
-207 88 208 0
-207 -229 208 0
207 -208 0
207 229 -88 211 0
208 230 -88 209 -210 0
-208 -230 0
-208 210 0
-208 -209 0
-208 88 0
-209 153 191 0
209 -153 0
209 -191 0
210 -246 132 0
210 -254 -132 134 0
-210 246 132 0
-210 254 -132 0
-210 -132 -134 0
-211 88 139 212 0
-211 139 212 -213 0
211 -212 0
211 -139 0
211 -88 213 0
-212 95 153 0
212 -95 0
212 -153 0
213 -132 -184 0
213 -245 132 0
-213 -132 184 0
-213 245 132 0
-214 131 215 0
-214 -243 215 0
-214 -180 215 0
214 -215 0
214 243 -131 180 0
215 245 180 -213 0
-215 213 0
-215 -180 0
-215 -245 0
-216 -180 217 0
-216 -246 217 0
-216 210 217 0
216 -217 0
216 246 180 -210 0
217 237 -88 -183 190 0
-217 -237 0
-217 -190 0
-217 183 0
-217 88 0
-218 172 219 0
-218 -180 219 0
-218 -241 219 0
218 -219 0
218 241 -172 180 0
-219 220 221 222 223 0
219 -223 0
219 -222 0
219 -220 0
219 -221 0
220 242 -176 180 0
-220 -180 0
-220 176 0
-220 -242 0
221 234 -88 190 -196 0
-221 -234 0
-221 196 0
-221 -190 0
-221 88 0
222 251 180 -201 0
222 180 -190 -201 0
-222 201 0
-222 -180 0
-222 -251 190 0
223 231 -88 190 -198 0
-223 -231 0
-223 198 0
-223 -190 0
-223 88 0
-288 0
2 0

